(set-logic ALL)
(declare-const pattern_VAR String)
(declare-const text_VAR String)
(assert (not (> (str.len pattern_VAR) (str.len text_VAR))))
(assert (< 0 (str.len pattern_VAR)))
(assert (> (str.len pattern_VAR) 0))
(assert (> (str.len text_VAR) 0))
(assert (not (= 0 (- (str.len pattern_VAR) 1))))
(assert (< 1 (str.len pattern_VAR)))
(assert (> (str.len pattern_VAR) 1))
(assert (> (str.len text_VAR) 1))
(assert (not (= 1 (- (str.len pattern_VAR) 1))))
(assert (< 2 (str.len pattern_VAR)))
(assert (> (str.len pattern_VAR) 2))
(assert (> (str.len text_VAR) 2))
(assert (not (= 2 (- (str.len pattern_VAR) 1))))
(assert (< 3 (str.len pattern_VAR)))
(assert (> (str.len pattern_VAR) 3))
(assert (> (str.len text_VAR) 3))
(assert (not (= 3 (- (str.len pattern_VAR) 1))))
(assert (< 4 (str.len pattern_VAR)))
(assert (> (str.len pattern_VAR) 4))
(assert (> (str.len text_VAR) 4))
(assert (not (= 4 (- (str.len pattern_VAR) 1))))
(assert (< 5 (str.len pattern_VAR)))
(assert (> (str.len pattern_VAR) 5))
(assert (> (str.len text_VAR) 5))
(assert (not (= 5 (- (str.len pattern_VAR) 1))))
(assert (< 6 (str.len pattern_VAR)))
(assert (> (str.len pattern_VAR) 6))
(assert (> (str.len text_VAR) 6))
(assert (not (= 6 (- (str.len pattern_VAR) 1))))
(assert (< 7 (str.len pattern_VAR)))
(assert (> (str.len pattern_VAR) 7))
(assert (> (str.len text_VAR) 7))
(assert (not (= 7 (- (str.len pattern_VAR) 1))))
(assert (< 8 (str.len pattern_VAR)))
(assert (> (str.len pattern_VAR) 8))
(assert (> (str.len text_VAR) 8))
(assert (not (= 8 (- (str.len pattern_VAR) 1))))
(assert (< 9 (str.len pattern_VAR)))
(assert (> (str.len pattern_VAR) 9))
(assert (> (str.len text_VAR) 9))
(assert (not (= 9 (- (str.len pattern_VAR) 1))))
(assert (< 10 (str.len pattern_VAR)))
(assert (> (str.len pattern_VAR) 10))
(assert (> (str.len text_VAR) 10))
(assert (not (= 10 (- (str.len pattern_VAR) 1))))
(assert (< 11 (str.len pattern_VAR)))
(assert (> (str.len pattern_VAR) 11))
(assert (> (str.len text_VAR) 11))
(assert (not (= 11 (- (str.len pattern_VAR) 1))))
(assert (< 12 (str.len pattern_VAR)))
(assert (> (str.len pattern_VAR) 12))
(assert (> (str.len text_VAR) 12))
(assert (not (= 12 (- (str.len pattern_VAR) 1))))
(assert (< 13 (str.len pattern_VAR)))
(assert (> (str.len pattern_VAR) 13))
(assert (> (str.len text_VAR) 13))
(assert (not (= 13 (- (str.len pattern_VAR) 1))))
(assert (< 14 (str.len pattern_VAR)))
(assert (> (str.len pattern_VAR) 14))
(assert (> (str.len text_VAR) 14))
(assert (not (= 14 (- (str.len pattern_VAR) 1))))
(assert (< 15 (str.len pattern_VAR)))
(assert (> (str.len pattern_VAR) 15))
(assert (> (str.len text_VAR) 15))
(assert (not (= 15 (- (str.len pattern_VAR) 1))))
(assert (< 16 (str.len pattern_VAR)))
(assert (> (str.len pattern_VAR) 16))
(assert (> (str.len text_VAR) 16))
(assert (not (= 16 (- (str.len pattern_VAR) 1))))
(assert (< 17 (str.len pattern_VAR)))
(assert (> (str.len pattern_VAR) 17))
(assert (> (str.len text_VAR) 17))
(assert (not (= 17 (- (str.len pattern_VAR) 1))))
(assert (< 18 (str.len pattern_VAR)))
(assert (> (str.len pattern_VAR) 18))
(assert (> (str.len text_VAR) 18))
(assert (not (= 18 (- (str.len pattern_VAR) 1))))
(assert (< 19 (str.len pattern_VAR)))
(assert (> (str.len pattern_VAR) 19))
(assert (> (str.len text_VAR) 19))
(assert (not (= 19 (- (str.len pattern_VAR) 1))))
(assert (< 20 (str.len pattern_VAR)))
(assert (> (str.len pattern_VAR) 20))
(assert (> (str.len text_VAR) 20))
(assert (not (= 20 (- (str.len pattern_VAR) 1))))
(assert (< 21 (str.len pattern_VAR)))
(assert (> (str.len pattern_VAR) 21))
(assert (> (str.len text_VAR) 21))
(assert (not (= 21 (- (str.len pattern_VAR) 1))))
(assert (< 22 (str.len pattern_VAR)))
(assert (> (str.len pattern_VAR) 22))
(assert (> (str.len text_VAR) 22))
(assert (not (= 22 (- (str.len pattern_VAR) 1))))
(assert (< 23 (str.len pattern_VAR)))
(assert (> (str.len pattern_VAR) 23))
(assert (> (str.len text_VAR) 23))
(assert (not (= 23 (- (str.len pattern_VAR) 1))))
(assert (< 24 (str.len pattern_VAR)))
(assert (> (str.len pattern_VAR) 24))
(assert (> (str.len text_VAR) 24))
(assert (not (= 24 (- (str.len pattern_VAR) 1))))
(assert (< 25 (str.len pattern_VAR)))
(assert (> (str.len pattern_VAR) 25))
(assert (> (str.len text_VAR) 25))
(assert (not (= 25 (- (str.len pattern_VAR) 1))))
(assert (< 26 (str.len pattern_VAR)))
(assert (> (str.len pattern_VAR) 26))
(assert (> (str.len text_VAR) 26))
(assert (not (= 26 (- (str.len pattern_VAR) 1))))
(assert (< 27 (str.len pattern_VAR)))
(assert (> (str.len pattern_VAR) 27))
(assert (> (str.len text_VAR) 27))
(assert (not (= 27 (- (str.len pattern_VAR) 1))))
(assert (< 28 (str.len pattern_VAR)))
(assert (> (str.len pattern_VAR) 28))
(assert (> (str.len text_VAR) 28))
(assert (not (= 28 (- (str.len pattern_VAR) 1))))
(assert (< 29 (str.len pattern_VAR)))
(assert (> (str.len pattern_VAR) 29))
(assert (> (str.len text_VAR) 29))
(assert (not (= 29 (- (str.len pattern_VAR) 1))))
(assert (< 30 (str.len pattern_VAR)))
(assert (> (str.len pattern_VAR) 30))
(assert (> (str.len text_VAR) 30))
(assert (not (= 30 (- (str.len pattern_VAR) 1))))
(assert (< 31 (str.len pattern_VAR)))
(assert (> (str.len pattern_VAR) 31))
(assert (> (str.len text_VAR) 31))
(assert (not (= 31 (- (str.len pattern_VAR) 1))))
(assert (< 32 (str.len pattern_VAR)))
(assert (> (str.len pattern_VAR) 32))
(assert (> (str.len text_VAR) 32))
(assert (not (= 32 (- (str.len pattern_VAR) 1))))
(assert (< 33 (str.len pattern_VAR)))
(assert (> (str.len pattern_VAR) 33))
(assert (> (str.len text_VAR) 33))
(assert (not (= 33 (- (str.len pattern_VAR) 1))))
(assert (< 34 (str.len pattern_VAR)))
(assert (> (str.len pattern_VAR) 34))
(assert (> (str.len text_VAR) 34))
(assert (not (= 34 (- (str.len pattern_VAR) 1))))
(assert (< 35 (str.len pattern_VAR)))
(assert (> (str.len pattern_VAR) 35))
(assert (> (str.len text_VAR) 35))
(assert (not (= 35 (- (str.len pattern_VAR) 1))))
(assert (< 36 (str.len pattern_VAR)))
(assert (> (str.len pattern_VAR) 36))
(assert (> (str.len text_VAR) 36))
(assert (not (= 36 (- (str.len pattern_VAR) 1))))
(assert (< 37 (str.len pattern_VAR)))
(assert (> (str.len pattern_VAR) 37))
(assert (> (str.len text_VAR) 37))
(assert (not (= 37 (- (str.len pattern_VAR) 1))))
(assert (< 38 (str.len pattern_VAR)))
(assert (> (str.len pattern_VAR) 38))
(assert (> (str.len text_VAR) 38))
(assert (not (= 38 (- (str.len pattern_VAR) 1))))
(assert (< 39 (str.len pattern_VAR)))
(assert (> (str.len pattern_VAR) 39))
(assert (> (str.len text_VAR) 39))
(assert (not (= 39 (- (str.len pattern_VAR) 1))))
(assert (< 40 (str.len pattern_VAR)))
(assert (> (str.len pattern_VAR) 40))
(assert (> (str.len text_VAR) 40))
(assert (not (= 40 (- (str.len pattern_VAR) 1))))
(assert (< 41 (str.len pattern_VAR)))
(assert (> (str.len pattern_VAR) 41))
(assert (> (str.len text_VAR) 41))
(assert (not (= 41 (- (str.len pattern_VAR) 1))))
(assert (< 42 (str.len pattern_VAR)))
(assert (> (str.len pattern_VAR) 42))
(assert (> (str.len text_VAR) 42))
(assert (not (= 42 (- (str.len pattern_VAR) 1))))
(assert (< 43 (str.len pattern_VAR)))
(assert (> (str.len pattern_VAR) 43))
(assert (> (str.len text_VAR) 43))
(assert (not (= 43 (- (str.len pattern_VAR) 1))))
(assert (< 44 (str.len pattern_VAR)))
(assert (> (str.len pattern_VAR) 44))
(assert (> (str.len text_VAR) 44))
(assert (not (= 44 (- (str.len pattern_VAR) 1))))
(assert (< 45 (str.len pattern_VAR)))
(assert (> (str.len pattern_VAR) 45))
(assert (> (str.len text_VAR) 45))
(assert (not (= 45 (- (str.len pattern_VAR) 1))))
(assert (< 46 (str.len pattern_VAR)))
(assert (> (str.len pattern_VAR) 46))
(assert (> (str.len text_VAR) 46))
(assert (not (= 46 (- (str.len pattern_VAR) 1))))
(assert (< 47 (str.len pattern_VAR)))
(assert (> (str.len pattern_VAR) 47))
(assert (> (str.len text_VAR) 47))
(assert (not (= 47 (- (str.len pattern_VAR) 1))))
(assert (< 48 (str.len pattern_VAR)))
(assert (> (str.len pattern_VAR) 48))
(assert (> (str.len text_VAR) 48))
(assert (not (= 48 (- (str.len pattern_VAR) 1))))
(assert (< 49 (str.len pattern_VAR)))
(assert (> (str.len pattern_VAR) 49))
(assert (> (str.len text_VAR) 49))
(assert (= 49 (- (str.len pattern_VAR) 1)))
(assert (< 50 (str.len pattern_VAR)))
(check-sat)
(get-value (pattern_VAR))
(get-value (text_VAR))
